236 300 182 198 189 179 147 161 168 105 173 100 170 111 200 163 139 139 103 182 142 157 143 118 171 169 116 131 107 120 169 168 168 151 165 156 129 179 184 163 184 156 130 153 134 129 115 139 135 186 121 143 108 164 161 179 199 177 109 172 163 145 139 131 196 103 153 191 148 136 119 131 159 149 185 159 145 166 198 180 117 118 122 125 148 149 170 112 193 146 184 155 191 189 152 152 159 105 108 106 107 127 138 132 143 189 191 188 154 189 133 138 173 121 129 188 170 200 166 128 111 116 184 101 104 101 119 163 106 127 170 181 154 107 112 197 196 103 150 115 158 183 153 197 170 183 184 106 148 116 134 159 132 184 126 136 186 145 200 158 172 169 138 192 142 117 155 103 187 104 185 144 154 104 106 190 153 157 196 100 173 130 125 104 180 151 140 165 162 105 190 133 140 194 191 182 110 145 151 197 116 136 106 170 106 180 159 159 136 121 159 108 151 184 112 197 100 118 162 162 191 117 161 130 110 151 179 188 197 129 150 179 131 157 148 103 136 173 